DATASET = "thpack2";
INSTANCE = "030";

WIDTH = 233;
HEIGHT = 220;
LENGTH = 587;

NO_OF_SHAPES = 5;
size = [|
  64,53,32 |
  51,42,28 |
  49,32,30 |
  109,68,59 |
  66,43,32 |
|];

verticality = [|
  0,1,1 |
  1,1,1 |
  1,1,1 |
  1,1,1 |
  0,1,1 |
|];

box_count = [
  40,
  46,
  31,
  41,
  38,
];
